Mo  S  W                                
   1.00000000000000     
     9.5549999999999997    0.0000000000000000    0.0000000000000000
     0.0000000000000000   16.5497454663206227    0.0000000000000000
     0.0000000000000000    0.0000000000000000   25.0000000000000000
   Mo   S    W 
    18    72    18
Direct
  0.1786499897874229  0.0557070290106375  0.3767957145818431
  0.6774044305649078  0.5605208344321988  0.3757552222734667
  0.8394796301339965  0.3955543659380535  0.3710793526167198
  0.0078836082216338  0.2249527512937115  0.3745620626217419
  0.8439817550341031  0.0581174611923207  0.3724370633350024
  0.5124102234997442  0.3928406951080931  0.3776362635941669
  0.0146840392948689  0.8952133408092480  0.3744268370111796
  0.6807200241344367  0.8902630526188907  0.3721319244302957
  0.8395188006165585  0.7188948964474225  0.3704911919811023
  0.3454223938149152  0.5532143466882803  0.3748698240615079
  0.3424452724163135  0.8895251979165231  0.3734257940893111
  0.1786794465346781  0.3929930886252941  0.3768943979024437
  0.0169445043620333  0.5539005624296214  0.3693846442595222
  0.1791189075010667  0.7271357268689177  0.3665760390625780
  0.6804184941647455  0.2222683695929012  0.3794309079252154
  0.5094240088276040  0.0644596451045598  0.3762469783666649
  0.3444343613704851  0.2274517177842429  0.3780179668671194
  0.5186570871791583  0.7229582115973048  0.3730041968716428
  0.0128640316839889  0.3377344117972607  0.3131253221833634
  0.0194316584364346  0.6691551178498835  0.3090829843354912
  0.0052611241470739  0.0066669758574316  0.3091383199624685
  0.1755835901148111  0.1669935396346109  0.3164079510680934
  0.1850962935334960  0.4962200103711186  0.3090818679992792
  0.1827669490745529  0.8366197116829529  0.3086499544865566
  0.3339460543014539  0.3318108855862100  0.3153833818213941
  0.3512171793364714  0.6669849908538049  0.3118199987632072
  0.3486021607657803  0.0048162699692616  0.3128695572966906
  0.5099526924089263  0.1717103591740911  0.3144354137658441
  0.5147959380633746  0.4990436091519088  0.3129590227859555
  0.5249976232032948  0.8356468270951373  0.3088002337939201
  0.6742274433346531  0.3311341803878512  0.3146711391696908
  0.6680009031761386  0.6687365202234055  0.3084597123926727
  0.6689156804260840  0.0035107551382125  0.3113330448165929
  0.8298309424433732  0.1697620814252501  0.3120437778409684
  0.8460321513905313  0.5061599638656358  0.3102310624664768
  0.8515220136231706  0.8380828007307921  0.3114566613901809
  0.0182843655276127  0.6650065569228722  0.4293344781406567
  0.1759181977129150  0.1722929048780104  0.4377643755262220
  0.3430517276097644  0.3362463741957776  0.4373946397818545
  0.3426861750075498  0.6693623120565664  0.4309199119487488
  0.5202406646206575  0.1727379012766514  0.4424047454816372
  0.6890056593734484  0.3413051519992599  0.4396711100169150
  0.6717157533478899  0.6688382208197844  0.4374369647443314
  0.8515591425205008  0.1673704399753021  0.4381246012762162
  0.8461436440687554  0.8292165434518557  0.4363190105112410
  0.0077918831777653  0.3420329418761985  0.4364177776172972
  0.0108639349770334  0.0063379135795036  0.4385093651328020
  0.1857802543484722  0.5035312052228715  0.4409385019818882
  0.1747661866111362  0.8318006494558774  0.4344782922644301
  0.3443578599563442  0.0019995162972744  0.4397207221719911
  0.5067480643373998  0.5052262872691448  0.4384780928379510
  0.5128916773730788  0.8398721091476801  0.4346384516295259
  0.6798985949921537  0.9995347179759052  0.4343383803052289
  0.8417419974933704  0.5054129923429096  0.4340245037001133
  0.9892285164550723  0.2224273247817266  0.5612029013410396
  0.9878308948082374  0.5606252079872331  0.5646294078861569
  0.9920253860710561  0.8856054022100226  0.5643828341671612
  0.1631296835379271  0.0549266277910942  0.5587316167787812
  0.1571759030729303  0.3878585449932475  0.5658308470545056
  0.1666353780389733  0.7209127468055512  0.5588385949659261
  0.3355279227637268  0.2244868588154952  0.5639100973461538
  0.3235572586855957  0.5602704512678293  0.5593708873464465
  0.3280090372001448  0.8864418262516213  0.5636841215991052
  0.4872662844808182  0.0518866111789912  0.5610614726881924
  0.4936802374157748  0.3832759157458477  0.5620724799122432
  0.5017401568329225  0.7239142584183041  0.5648906214833791
  0.6635666874423641  0.2238380155216068  0.5661891727578180
  0.6550954566272216  0.5526907140950614  0.5619665995309574
  0.6610575787722338  0.8847308464232537  0.5657141907901254
  0.8200715033038204  0.0542407485199925  0.5616322887947341
  0.8180682699881231  0.3881257343952754  0.5667123835246136
  0.8257692210523659  0.7209440846419817  0.5670860116168804
  0.9958635991923812  0.5563880153683456  0.6873217997879901
  0.9978834073241490  0.8889981158882457  0.6905632778616180
  0.1561605776386943  0.0578017874276738  0.6852287446423472
  0.1638402281741331  0.3864494939646016  0.6867482609536305
  0.1688733711821601  0.7199759305157005  0.6904159879274591
  0.3233516361010170  0.5564600995809792  0.6867415030846129
  0.3298502581838746  0.8856725959867672  0.6885836970627683
  0.4835885005224412  0.0536662833239399  0.6890370489106161
  0.4915016939913858  0.3869248559075532  0.6878455295067883
  0.6489231877727532  0.5522480989471730  0.6908569858810559
  0.6590103422895490  0.8877017604883174  0.6880061498953304
  0.8268792806237427  0.0492502396387980  0.6872733575106222
  0.8316360162708788  0.3916387741615868  0.6891397715131563
  0.8228602259315003  0.7223799202121489  0.6912325114818783
  0.9964257219759676  0.2207767262839028  0.6877362628258117
  0.3243425207721850  0.2226777789265934  0.6869270693658192
  0.4988811740372564  0.7189471387724474  0.6911184887296118
  0.6567234892564456  0.2144660745334884  0.6913134044093835
  0.4917879214148896  0.4988759149540810  0.6243468742248419
  0.1564923339003784  0.1665776815409439  0.6214866829385404
  0.9943882106014397  0.0008882491956624  0.6229924858107933
  0.8311099868178913  0.8337435772955587  0.6307669040426717
  0.6623384497898310  0.6645647510844497  0.6257522970562168
  0.3236252135642116  0.3358012268096934  0.6259634940864185
  0.8251959683374799  0.1628164022311853  0.6267772749235183
  0.1577626795928423  0.5018690112802221  0.6227308831028491
  0.8188000717044221  0.4969282860196924  0.6266561286717621
  0.9882835320886845  0.3325619490168252  0.6250160451550568
  0.6607342907183007  0.3331920013366698  0.6270355507631309
  0.4954287265433173  0.1624527035498243  0.6264838387610524
  0.1659366236086964  0.8305164885638187  0.6265081280183750
  0.6534086396755537  0.9977245816678132  0.6233619683031102
  0.3338783645742211  0.6660036107955438  0.6239017948716615
  0.9894028148796332  0.6711309906831827  0.6255144625661789
  0.4946556009173216  0.8316911931680632  0.6265192600360334
  0.3169499062185226  0.9984026096599944  0.6229439008825643
