Mo  Se  W                               
   1.00000000000000     
     9.9600000000000009    0.0000000000000000    0.0000000000000000
     0.0000000000000000   17.2512260433860192    0.0000000000000000
     0.0000000000000000    0.0000000000000000   25.0000000000000000
   Mo   Se   W 
    18    72    18
Direct
  0.1666666666666305  0.0539460566489482  0.3699581719823279
  0.6666666666666284  0.5539460566489507  0.3699581719823279
  0.8333333333333683  0.3872793899822057  0.3699581719823279
  0.0000000000000006  0.2206127233155850  0.3699581719823267
  0.8333333333333719  0.0539460566489511  0.3699581719823279
  0.5000000000000000  0.3872793899822114  0.3699581719823285
 -0.0000000000000003  0.8872793899822117  0.3699581719823282
  0.6666666666666338  0.8872793899822026  0.3699581719823278
  0.8333333333333668  0.7206127233155827  0.3699581719823266
  0.3333333333333722  0.5539460566489508  0.3699581719823279
  0.3333333333333665  0.8872793899822093  0.3699581719823276
  0.1666666666666318  0.3872793899822057  0.3699581719823279
 -0.0000000000000005  0.5539460566489534  0.3699581719823282
  0.1666666666666302  0.7206127233155796  0.3699581719823264
  0.6666666666666307  0.2206127233155796  0.3699581719823266
  0.4999999999999974  0.0539460566489568  0.3699581719823279
  0.3333333333333690  0.2206127233155797  0.3699581719823266
  0.5000000000000032  0.7206127233155813  0.3699581719823267
 -0.0000000000000000  0.3321983838220907  0.3034849852107872
 -0.0000000000000001  0.6655317171554034  0.3034849852107867
 -0.0000000000000006  0.9988650504887524  0.3034849852107886
  0.1666666666666517  0.1655317171554041  0.3034849852107863
  0.1666666666666514  0.4988650504887533  0.3034849852107886
  0.1666666666666514  0.8321983838220915  0.3034849852107872
  0.3333333333333486  0.3321983838220918  0.3034849852107875
  0.3333333333333480  0.6655317171554039  0.3034849852107865
  0.3333333333333490  0.9988650504887535  0.3034849852107883
  0.5000000000000000  0.1655317171554039  0.3034849852107866
  0.5000000000000000  0.4988650504887525  0.3034849852107888
  0.5000000000000001  0.8321983838221024  0.3034849852107874
  0.6666666666666514  0.3321983838220918  0.3034849852107875
  0.6666666666666522  0.6655317171554037  0.3034849852107865
  0.6666666666666516  0.9988650504887532  0.3034849852107886
  0.8333333333333482  0.1655317171554040  0.3034849852107863
  0.8333333333333485  0.4988650504887533  0.3034849852107886
  0.8333333333333482  0.8321983838220914  0.3034849852107874
  0.0000000000000001  0.6655700847066638  0.4364327075945993
  0.1666666666666485  0.1655700847066651  0.4364327075946013
  0.3333333333333511  0.3322367513733672  0.4364327075945986
  0.3333333333333508  0.6655700847066653  0.4364327075946009
  0.5000000000000000  0.1655700847066641  0.4364327075945996
  0.6666666666666490  0.3322367513733671  0.4364327075945986
  0.6666666666666491  0.6655700847066649  0.4364327075946011
  0.8333333333333512  0.1655700847066651  0.4364327075946013
  0.8333333333333507  0.8322367513733674  0.4364327075945987
 -0.0000000000000000  0.3322367513733649  0.4364327075946051
 -0.0000000000000004  0.9989034180400083  0.4364327075946146
  0.1666666666666485  0.4989034180400101  0.4364327075946159
  0.1666666666666495  0.8322367513733672  0.4364327075946067
  0.3333333333333519  0.9989034180400109  0.4364327075946152
  0.5000000000000000  0.4989034180400087  0.4364327075946146
  0.4999999999999999  0.8322367513733652  0.4364327075946053
  0.6666666666666488  0.9989034180400106  0.4364327075946154
  0.8333333333333515  0.4989034180400101  0.4364327075946159
 -0.0000000000000000  0.2232998024450424  0.5634095528335981
  0.0000000000000000  0.5566331357783609  0.5634095528336398
 -0.0000000000000022  0.8899664691117336  0.5634095528336187
  0.1666666666666315  0.0566331357783785  0.5634095528336437
  0.1666666666666340  0.3899664691117534  0.5634095528336229
  0.1666666666666325  0.7232998024450611  0.5634095528336026
  0.3333333333333672  0.2232998024450625  0.5634095528336012
  0.3333333333333676  0.5566331357783794  0.5634095528336439
  0.3333333333333681  0.8899664691117647  0.5634095528336239
  0.5000000000000000  0.0566331357783591  0.5634095528336395
  0.5000000000000000  0.3899664691117328  0.5634095528336176
  0.4999999999999999  0.7232998024450417  0.5634095528335981
  0.6666666666666330  0.2232998024450625  0.5634095528336012
  0.6666666666666324  0.5566331357783794  0.5634095528336439
  0.6666666666666342  0.8899664691117639  0.5634095528336227
  0.8333333333333683  0.0566331357783786  0.5634095528336437
  0.8333333333333660  0.3899664691117535  0.5634095528336229
  0.8333333333333677  0.7232998024450622  0.5634095528336014
 -0.0000000000000000  0.5566481341397591  0.6967017605028011
  0.0000000000000000  0.8899814674731452  0.6967017605028236
  0.1666666666666299  0.0566481341397787  0.6967017605027945
  0.1666666666666302  0.3899814674731650  0.6967017605028173
  0.1666666666666310  0.7233148008064628  0.6967017605028355
  0.3333333333333693  0.5566481341397786  0.6967017605027948
  0.3333333333333698  0.8899814674731646  0.6967017605028174
  0.5000000000000000  0.0566481341397587  0.6967017605028009
  0.5000000000000000  0.3899814674731444  0.6967017605028231
  0.6666666666666304  0.5566481341397786  0.6967017605027948
  0.6666666666666299  0.8899814674731648  0.6967017605028173
  0.8333333333333703  0.0566481341397787  0.6967017605027945
  0.8333333333333700  0.3899814674731650  0.6967017605028173
  0.8333333333333688  0.7233148008064628  0.6967017605028355
 -0.0000000000000000  0.2233148008064426  0.6967017605028510
  0.3333333333333691  0.2233148008064625  0.6967017605028450
  0.5000000000000000  0.7233148008064419  0.6967017605028515
  0.6666666666666311  0.2233148008064625  0.6967017605028450
  0.5000000000000000  0.5016708715708257  0.6300128218758497
  0.1666666666656374  0.1683375382366387  0.6300128218758495
  0.0000000000000001  0.0016708715708256  0.6300128218758494
  0.8333333333343603  0.8350042049049480  0.6300128218758501
  0.6666666666656383  0.6683375382366399  0.6300128218758501
  0.3333333333343605  0.3350042049049454  0.6300128218758499
  0.8333333333343628  0.1683375382366387  0.6300128218758495
  0.1666666666656389  0.5016708715707957  0.6300128218758495
  0.8333333333343610  0.5016708715707957  0.6300128218758495
  0.0000000000000000  0.3350042049049540  0.6300128218758494
  0.6666666666656393  0.3350042049049453  0.6300128218758499
  0.5000000000000000  0.1683375382366724  0.6300128218758495
  0.1666666666656398  0.8350042049049480  0.6300128218758495
  0.6666666666656401  0.0016708715707910  0.6300128218758494
  0.3333333333343618  0.6683375382366401  0.6300128218758499
  0.0000000000000001  0.6683375382366458  0.6300128218758501
  0.4999999999999999  0.8350042049049524  0.6300128218758494
  0.3333333333343597  0.0016708715707910  0.6300128218758494
 
  0.00000000E+00  0.00000000E+00  0.00000000E+00
  0.00000000E+00  0.00000000E+00  0.00000000E+00
  0.00000000E+00  0.00000000E+00  0.00000000E+00
  0.00000000E+00  0.00000000E+00  0.00000000E+00
  0.00000000E+00  0.00000000E+00  0.00000000E+00
  0.00000000E+00  0.00000000E+00  0.00000000E+00
  0.00000000E+00  0.00000000E+00  0.00000000E+00
  0.00000000E+00  0.00000000E+00  0.00000000E+00
  0.00000000E+00  0.00000000E+00  0.00000000E+00
  0.00000000E+00  0.00000000E+00  0.00000000E+00
  0.00000000E+00  0.00000000E+00  0.00000000E+00
  0.00000000E+00  0.00000000E+00  0.00000000E+00
  0.00000000E+00  0.00000000E+00  0.00000000E+00
  0.00000000E+00  0.00000000E+00  0.00000000E+00
  0.00000000E+00  0.00000000E+00  0.00000000E+00
  0.00000000E+00  0.00000000E+00  0.00000000E+00
  0.00000000E+00  0.00000000E+00  0.00000000E+00
  0.00000000E+00  0.00000000E+00  0.00000000E+00
  0.00000000E+00  0.00000000E+00  0.00000000E+00
  0.00000000E+00  0.00000000E+00  0.00000000E+00
  0.00000000E+00  0.00000000E+00  0.00000000E+00
  0.00000000E+00  0.00000000E+00  0.00000000E+00
  0.00000000E+00  0.00000000E+00  0.00000000E+00
  0.00000000E+00  0.00000000E+00  0.00000000E+00
  0.00000000E+00  0.00000000E+00  0.00000000E+00
  0.00000000E+00  0.00000000E+00  0.00000000E+00
  0.00000000E+00  0.00000000E+00  0.00000000E+00
  0.00000000E+00  0.00000000E+00  0.00000000E+00
  0.00000000E+00  0.00000000E+00  0.00000000E+00
  0.00000000E+00  0.00000000E+00  0.00000000E+00
  0.00000000E+00  0.00000000E+00  0.00000000E+00
  0.00000000E+00  0.00000000E+00  0.00000000E+00
  0.00000000E+00  0.00000000E+00  0.00000000E+00
  0.00000000E+00  0.00000000E+00  0.00000000E+00
  0.00000000E+00  0.00000000E+00  0.00000000E+00
  0.00000000E+00  0.00000000E+00  0.00000000E+00
  0.00000000E+00  0.00000000E+00  0.00000000E+00
  0.00000000E+00  0.00000000E+00  0.00000000E+00
  0.00000000E+00  0.00000000E+00  0.00000000E+00
  0.00000000E+00  0.00000000E+00  0.00000000E+00
  0.00000000E+00  0.00000000E+00  0.00000000E+00
  0.00000000E+00  0.00000000E+00  0.00000000E+00
  0.00000000E+00  0.00000000E+00  0.00000000E+00
  0.00000000E+00  0.00000000E+00  0.00000000E+00
  0.00000000E+00  0.00000000E+00  0.00000000E+00
  0.00000000E+00  0.00000000E+00  0.00000000E+00
  0.00000000E+00  0.00000000E+00  0.00000000E+00
  0.00000000E+00  0.00000000E+00  0.00000000E+00
  0.00000000E+00  0.00000000E+00  0.00000000E+00
  0.00000000E+00  0.00000000E+00  0.00000000E+00
  0.00000000E+00  0.00000000E+00  0.00000000E+00
  0.00000000E+00  0.00000000E+00  0.00000000E+00
  0.00000000E+00  0.00000000E+00  0.00000000E+00
  0.00000000E+00  0.00000000E+00  0.00000000E+00
  0.00000000E+00  0.00000000E+00  0.00000000E+00
  0.00000000E+00  0.00000000E+00  0.00000000E+00
  0.00000000E+00  0.00000000E+00  0.00000000E+00
  0.00000000E+00  0.00000000E+00  0.00000000E+00
  0.00000000E+00  0.00000000E+00  0.00000000E+00
  0.00000000E+00  0.00000000E+00  0.00000000E+00
  0.00000000E+00  0.00000000E+00  0.00000000E+00
  0.00000000E+00  0.00000000E+00  0.00000000E+00
  0.00000000E+00  0.00000000E+00  0.00000000E+00
  0.00000000E+00  0.00000000E+00  0.00000000E+00
  0.00000000E+00  0.00000000E+00  0.00000000E+00
  0.00000000E+00  0.00000000E+00  0.00000000E+00
  0.00000000E+00  0.00000000E+00  0.00000000E+00
  0.00000000E+00  0.00000000E+00  0.00000000E+00
  0.00000000E+00  0.00000000E+00  0.00000000E+00
  0.00000000E+00  0.00000000E+00  0.00000000E+00
  0.00000000E+00  0.00000000E+00  0.00000000E+00
  0.00000000E+00  0.00000000E+00  0.00000000E+00
  0.00000000E+00  0.00000000E+00  0.00000000E+00
  0.00000000E+00  0.00000000E+00  0.00000000E+00
  0.00000000E+00  0.00000000E+00  0.00000000E+00
  0.00000000E+00  0.00000000E+00  0.00000000E+00
  0.00000000E+00  0.00000000E+00  0.00000000E+00
  0.00000000E+00  0.00000000E+00  0.00000000E+00
  0.00000000E+00  0.00000000E+00  0.00000000E+00
  0.00000000E+00  0.00000000E+00  0.00000000E+00
  0.00000000E+00  0.00000000E+00  0.00000000E+00
  0.00000000E+00  0.00000000E+00  0.00000000E+00
  0.00000000E+00  0.00000000E+00  0.00000000E+00
  0.00000000E+00  0.00000000E+00  0.00000000E+00
  0.00000000E+00  0.00000000E+00  0.00000000E+00
  0.00000000E+00  0.00000000E+00  0.00000000E+00
  0.00000000E+00  0.00000000E+00  0.00000000E+00
  0.00000000E+00  0.00000000E+00  0.00000000E+00
  0.00000000E+00  0.00000000E+00  0.00000000E+00
  0.00000000E+00  0.00000000E+00  0.00000000E+00
  0.00000000E+00  0.00000000E+00  0.00000000E+00
  0.00000000E+00  0.00000000E+00  0.00000000E+00
  0.00000000E+00  0.00000000E+00  0.00000000E+00
  0.00000000E+00  0.00000000E+00  0.00000000E+00
  0.00000000E+00  0.00000000E+00  0.00000000E+00
  0.00000000E+00  0.00000000E+00  0.00000000E+00
  0.00000000E+00  0.00000000E+00  0.00000000E+00
  0.00000000E+00  0.00000000E+00  0.00000000E+00
  0.00000000E+00  0.00000000E+00  0.00000000E+00
  0.00000000E+00  0.00000000E+00  0.00000000E+00
  0.00000000E+00  0.00000000E+00  0.00000000E+00
  0.00000000E+00  0.00000000E+00  0.00000000E+00
  0.00000000E+00  0.00000000E+00  0.00000000E+00
  0.00000000E+00  0.00000000E+00  0.00000000E+00
  0.00000000E+00  0.00000000E+00  0.00000000E+00
  0.00000000E+00  0.00000000E+00  0.00000000E+00
  0.00000000E+00  0.00000000E+00  0.00000000E+00
  0.00000000E+00  0.00000000E+00  0.00000000E+00
